c Reduced graph for DSJR500.1_0 generated by Cyril Grelier
p edge 497 3531
e 1 4
e 1 8
e 1 23
e 1 32
e 1 74
e 1 93
e 1 94
e 1 110
e 1 120
e 1 121
e 1 122
e 1 124
e 1 125
e 1 162
e 1 163
e 1 169
e 1 175
e 1 189
e 1 197
e 1 205
e 1 206
e 1 221
e 1 296
e 1 388
e 1 389
e 2 3
e 2 5
e 2 6
e 2 14
e 2 18
e 2 24
e 2 30
e 2 36
e 2 40
e 2 50
e 2 55
e 2 60
e 2 69
e 2 71
e 2 79
e 2 88
e 2 89
e 2 90
e 2 95
e 2 101
e 2 104
e 2 129
e 2 144
e 2 150
e 2 176
e 3 5
e 3 6
e 3 14
e 3 18
e 3 24
e 3 30
e 3 36
e 3 40
e 3 50
e 3 55
e 3 60
e 3 69
e 3 71
e 3 76
e 3 77
e 3 79
e 3 88
e 3 90
e 3 95
e 3 101
e 3 104
e 3 145
e 3 150
e 3 176
e 4 8
e 4 23
e 4 32
e 4 74
e 4 93
e 4 94
e 4 110
e 4 120
e 4 121
e 4 122
e 4 125
e 4 162
e 4 163
e 4 169
e 4 189
e 4 197
e 4 205
e 4 206
e 4 221
e 4 296
e 4 388
e 4 389
e 4 426
e 5 6
e 5 14
e 5 18
e 5 24
e 5 30
e 5 36
e 5 40
e 5 50
e 5 55
e 5 60
e 5 69
e 5 71
e 5 88
e 5 89
e 5 90
e 5 95
e 5 104
e 5 129
e 5 144
e 5 150
e 5 176
e 5 182
e 6 14
e 6 18
e 6 24
e 6 30
e 6 36
e 6 40
e 6 50
e 6 55
e 6 60
e 6 69
e 6 71
e 6 76
e 6 77
e 6 88
e 6 89
e 6 90
e 6 95
e 6 144
e 6 182
e 6 312
e 6 376
e 7 9
e 7 17
e 7 21
e 7 26
e 7 42
e 7 65
e 7 98
e 7 105
e 7 109
e 7 117
e 7 132
e 7 141
e 7 156
e 7 164
e 7 168
e 7 179
e 7 181
e 7 192
e 7 202
e 7 229
e 7 231
e 7 235
e 7 275
e 7 276
e 8 23
e 8 32
e 8 74
e 8 93
e 8 94
e 8 110
e 8 120
e 8 121
e 8 122
e 8 124
e 8 125
e 8 162
e 8 163
e 8 169
e 8 175
e 8 197
e 8 219
e 8 220
e 8 244
e 8 251
e 8 289
e 8 297
e 9 17
e 9 21
e 9 26
e 9 42
e 9 65
e 9 98
e 9 105
e 9 109
e 9 117
e 9 132
e 9 141
e 9 156
e 9 164
e 9 168
e 9 179
e 9 181
e 9 186
e 9 192
e 9 202
e 9 231
e 9 235
e 9 275
e 10 13
e 10 20
e 10 29
e 10 51
e 10 58
e 10 63
e 10 68
e 10 82
e 10 91
e 10 96
e 10 100
e 10 103
e 10 111
e 10 119
e 10 131
e 10 171
e 10 188
e 10 201
e 10 216
e 10 218
e 10 225
e 10 273
e 11 15
e 11 16
e 11 19
e 11 28
e 11 31
e 11 33
e 11 34
e 11 35
e 11 39
e 11 43
e 11 46
e 11 47
e 11 54
e 11 57
e 11 61
e 11 75
e 11 81
e 11 87
e 11 138
e 11 147
e 11 199
e 11 266
e 12 37
e 12 45
e 12 53
e 12 56
e 12 59
e 12 62
e 12 64
e 12 66
e 12 67
e 12 68
e 12 73
e 12 86
e 12 103
e 12 118
e 12 131
e 12 139
e 12 148
e 12 159
e 12 161
e 12 167
e 12 183
e 12 246
e 13 20
e 13 29
e 13 51
e 13 58
e 13 59
e 13 63
e 13 68
e 13 73
e 13 82
e 13 91
e 13 96
e 13 100
e 13 103
e 13 111
e 13 119
e 13 131
e 13 158
e 13 171
e 13 188
e 13 201
e 13 218
e 14 18
e 14 24
e 14 36
e 14 40
e 14 50
e 14 55
e 14 60
e 14 69
e 14 71
e 14 76
e 14 77
e 14 88
e 14 89
e 14 90
e 14 182
e 14 312
e 14 376
e 14 391
e 15 16
e 15 19
e 15 31
e 15 33
e 15 34
e 15 35
e 15 39
e 15 43
e 15 46
e 15 47
e 15 57
e 15 61
e 15 75
e 15 81
e 15 113
e 15 128
e 15 147
e 15 199
e 15 264
e 15 318
e 15 373
e 16 19
e 16 33
e 16 34
e 16 35
e 16 39
e 16 46
e 16 47
e 16 54
e 16 57
e 16 61
e 16 81
e 16 87
e 16 128
e 16 147
e 16 199
e 16 264
e 16 283
e 16 373
e 16 461
e 16 475
e 17 21
e 17 26
e 17 42
e 17 65
e 17 98
e 17 105
e 17 109
e 17 112
e 17 123
e 17 126
e 17 156
e 17 168
e 17 181
e 17 186
e 17 187
e 17 211
e 17 231
e 17 275
e 17 310
e 17 338
e 18 24
e 18 30
e 18 36
e 18 50
e 18 55
e 18 69
e 18 71
e 18 76
e 18 77
e 18 79
e 18 88
e 18 90
e 18 95
e 18 101
e 18 104
e 18 145
e 18 150
e 19 33
e 19 34
e 19 35
e 19 39
e 19 46
e 19 47
e 19 54
e 19 57
e 19 61
e 19 75
e 19 81
e 19 87
e 19 147
e 19 199
e 19 214
e 19 264
e 19 283
e 19 373
e 19 461
e 20 29
e 20 51
e 20 58
e 20 63
e 20 68
e 20 82
e 20 91
e 20 96
e 20 100
e 20 103
e 20 119
e 20 131
e 20 158
e 20 171
e 20 188
e 20 201
e 20 218
e 20 290
e 20 299
e 20 358
e 21 26
e 21 42
e 21 65
e 21 98
e 21 105
e 21 109
e 21 117
e 21 132
e 21 141
e 21 156
e 21 168
e 21 179
e 21 181
e 21 186
e 21 192
e 21 202
e 21 231
e 21 235
e 21 275
e 22 25
e 22 27
e 22 28
e 22 44
e 22 70
e 22 72
e 22 83
e 22 85
e 22 92
e 22 102
e 22 106
e 22 116
e 22 130
e 22 133
e 22 135
e 22 140
e 22 160
e 22 166
e 22 191
e 22 203
e 22 271
e 22 311
e 23 32
e 23 74
e 23 93
e 23 110
e 23 120
e 23 121
e 23 122
e 23 124
e 23 125
e 23 162
e 23 163
e 23 169
e 23 197
e 23 205
e 23 206
e 23 221
e 23 388
e 23 389
e 24 30
e 24 40
e 24 50
e 24 55
e 24 60
e 24 69
e 24 71
e 24 88
e 24 89
e 24 95
e 24 104
e 24 129
e 24 144
e 24 176
e 24 182
e 25 27
e 25 28
e 25 44
e 25 49
e 25 54
e 25 57
e 25 61
e 25 70
e 25 72
e 25 80
e 25 83
e 25 87
e 25 99
e 25 106
e 25 127
e 25 140
e 25 160
e 25 190
e 25 214
e 25 237
e 26 42
e 26 65
e 26 105
e 26 109
e 26 123
e 26 126
e 26 156
e 26 168
e 26 181
e 26 186
e 26 187
e 26 211
e 26 231
e 26 275
e 26 310
e 26 338
e 26 402
e 27 28
e 27 44
e 27 49
e 27 54
e 27 70
e 27 72
e 27 80
e 27 83
e 27 99
e 27 106
e 27 127
e 27 140
e 27 160
e 27 190
e 27 215
e 27 258
e 27 271
e 27 311
e 27 369
e 28 39
e 28 44
e 28 54
e 28 57
e 28 61
e 28 72
e 28 75
e 28 80
e 28 83
e 28 84
e 28 87
e 28 135
e 28 138
e 28 140
e 28 160
e 28 203
e 28 266
e 29 51
e 29 58
e 29 63
e 29 68
e 29 73
e 29 82
e 29 91
e 29 100
e 29 103
e 29 111
e 29 119
e 29 131
e 29 158
e 29 171
e 29 201
e 29 216
e 29 225
e 29 273
e 30 36
e 30 50
e 30 55
e 30 69
e 30 79
e 30 88
e 30 95
e 30 101
e 30 104
e 30 129
e 30 144
e 30 150
e 30 176
e 30 191
e 30 269
e 31 33
e 31 34
e 31 35
e 31 39
e 31 43
e 31 46
e 31 47
e 31 75
e 31 81
e 31 113
e 31 128
e 31 147
e 31 195
e 31 208
e 31 256
e 31 265
e 31 279
e 31 314
e 31 346
e 32 93
e 32 120
e 32 121
e 32 122
e 32 124
e 32 162
e 32 163
e 32 175
e 32 197
e 32 205
e 32 219
e 32 220
e 32 244
e 32 251
e 32 289
e 32 297
e 32 385
e 33 34
e 33 35
e 33 39
e 33 43
e 33 46
e 33 47
e 33 57
e 33 75
e 33 81
e 33 113
e 33 128
e 33 138
e 33 147
e 33 195
e 33 208
e 33 265
e 34 35
e 34 39
e 34 43
e 34 46
e 34 47
e 34 57
e 34 61
e 34 75
e 34 81
e 34 128
e 34 147
e 34 199
e 34 264
e 34 318
e 34 373
e 35 39
e 35 43
e 35 46
e 35 47
e 35 57
e 35 75
e 35 81
e 35 113
e 35 138
e 35 147
e 35 195
e 35 199
e 35 266
e 36 50
e 36 55
e 36 71
e 36 76
e 36 77
e 36 79
e 36 88
e 36 90
e 36 101
e 36 104
e 36 145
e 36 150
e 36 157
e 37 38
e 37 41
e 37 45
e 37 53
e 37 56
e 37 59
e 37 62
e 37 64
e 37 66
e 37 67
e 37 73
e 37 86
e 37 115
e 37 118
e 37 139
e 37 159
e 37 167
e 37 193
e 37 236
e 38 41
e 38 62
e 38 64
e 38 66
e 38 67
e 38 115
e 38 118
e 38 139
e 38 193
e 38 232
e 38 234
e 38 236
e 38 242
e 38 284
e 38 300
e 38 302
e 38 304
e 38 342
e 38 382
e 39 43
e 39 46
e 39 47
e 39 57
e 39 75
e 39 84
e 39 138
e 39 195
e 39 266
e 39 323
e 39 331
e 40 60
e 40 69
e 40 71
e 40 89
e 40 95
e 40 129
e 40 144
e 40 182
e 40 267
e 40 312
e 40 320
e 40 376
e 40 391
e 40 408
e 41 62
e 41 64
e 41 66
e 41 67
e 41 108
e 41 115
e 41 118
e 41 139
e 41 193
e 41 232
e 41 234
e 41 242
e 41 284
e 41 300
e 41 302
e 41 304
e 41 342
e 41 382
e 42 65
e 42 109
e 42 117
e 42 132
e 42 141
e 42 156
e 42 164
e 42 168
e 42 179
e 42 192
e 42 202
e 42 229
e 42 235
e 42 276
e 42 326
e 43 46
e 43 47
e 43 75
e 43 81
e 43 113
e 43 138
e 43 147
e 43 195
e 43 208
e 43 256
e 43 279
e 43 331
e 43 346
e 44 49
e 44 70
e 44 72
e 44 80
e 44 83
e 44 99
e 44 106
e 44 127
e 44 133
e 44 140
e 44 160
e 44 190
e 44 215
e 44 271
e 44 311
e 44 369
e 45 53
e 45 56
e 45 59
e 45 62
e 45 64
e 45 66
e 45 67
e 45 115
e 45 118
e 45 139
e 45 148
e 45 159
e 45 167
e 45 183
e 45 193
e 45 246
e 45 274
e 45 302
e 46 47
e 46 57
e 46 61
e 46 75
e 46 81
e 46 128
e 46 138
e 46 147
e 46 195
e 46 199
e 47 57
e 47 75
e 47 81
e 47 113
e 47 128
e 47 147
e 47 195
e 47 208
e 47 265
e 48 52
e 48 146
e 48 152
e 48 161
e 48 167
e 48 183
e 48 198
e 48 224
e 48 227
e 48 233
e 48 238
e 48 246
e 48 253
e 48 254
e 48 257
e 48 268
e 48 272
e 48 351
e 48 370
e 48 383
e 49 54
e 49 61
e 49 72
e 49 80
e 49 87
e 49 99
e 49 127
e 49 140
e 49 160
e 49 190
e 49 214
e 49 215
e 49 237
e 49 258
e 49 329
e 49 357
e 49 470
e 50 55
e 50 71
e 50 76
e 50 77
e 50 88
e 50 90
e 50 145
e 50 150
e 50 157
e 50 182
e 50 312
e 51 58
e 51 63
e 51 82
e 51 91
e 51 96
e 51 171
e 51 188
e 51 216
e 51 218
e 51 225
e 51 273
e 51 290
e 51 299
e 51 336
e 51 436
e 51 449
e 52 146
e 52 148
e 52 152
e 52 161
e 52 167
e 52 183
e 52 224
e 52 227
e 52 233
e 52 238
e 52 246
e 52 253
e 52 254
e 52 257
e 52 268
e 52 272
e 52 351
e 52 370
e 52 383
e 53 56
e 53 59
e 53 62
e 53 64
e 53 66
e 53 67
e 53 73
e 53 86
e 53 103
e 53 118
e 53 139
e 53 148
e 53 159
e 53 161
e 53 167
e 53 183
e 53 246
e 54 57
e 54 61
e 54 72
e 54 80
e 54 87
e 54 127
e 54 140
e 54 160
e 54 199
e 54 214
e 54 237
e 54 283
e 54 329
e 55 71
e 55 76
e 55 77
e 55 79
e 55 88
e 55 90
e 55 104
e 55 145
e 55 150
e 55 182
e 56 59
e 56 64
e 56 66
e 56 68
e 56 73
e 56 86
e 56 100
e 56 103
e 56 119
e 56 131
e 56 158
e 56 159
e 56 161
e 56 167
e 56 183
e 56 246
e 57 61
e 57 75
e 57 87
e 57 138
e 57 140
e 57 199
e 57 214
e 58 63
e 58 82
e 58 91
e 58 96
e 58 111
e 58 171
e 58 188
e 58 216
e 58 218
e 58 225
e 58 273
e 58 290
e 58 299
e 58 336
e 58 449
e 59 63
e 59 64
e 59 66
e 59 68
e 59 73
e 59 86
e 59 100
e 59 103
e 59 119
e 59 131
e 59 158
e 59 159
e 59 173
e 59 201
e 60 69
e 60 89
e 60 95
e 60 129
e 60 144
e 60 182
e 60 267
e 60 312
e 60 316
e 60 320
e 60 376
e 60 391
e 60 408
e 61 80
e 61 87
e 61 140
e 61 160
e 61 199
e 61 214
e 61 237
e 61 264
e 61 283
e 62 64
e 62 66
e 62 67
e 62 86
e 62 115
e 62 118
e 62 139
e 62 159
e 62 173
e 62 193
e 62 232
e 62 236
e 62 242
e 62 424
e 63 68
e 63 73
e 63 82
e 63 91
e 63 96
e 63 100
e 63 103
e 63 111
e 63 119
e 63 131
e 63 158
e 63 171
e 63 201
e 64 66
e 64 67
e 64 73
e 64 86
e 64 115
e 64 118
e 64 139
e 64 159
e 64 173
e 64 232
e 64 236
e 65 98
e 65 105
e 65 112
e 65 117
e 65 132
e 65 156
e 65 181
e 65 186
e 65 187
e 65 198
e 65 204
e 65 224
e 65 238
e 66 67
e 66 86
e 66 115
e 66 118
e 66 139
e 66 159
e 66 173
e 66 232
e 66 236
e 67 115
e 67 118
e 67 139
e 67 159
e 67 193
e 67 232
e 67 234
e 67 236
e 67 242
e 67 302
e 68 73
e 68 82
e 68 86
e 68 91
e 68 100
e 68 103
e 68 111
e 68 119
e 68 131
e 68 158
e 68 201
e 69 89
e 69 95
e 69 104
e 69 129
e 69 144
e 69 176
e 69 269
e 69 315
e 69 322
e 70 72
e 70 80
e 70 83
e 70 99
e 70 106
e 70 127
e 70 130
e 70 133
e 70 140
e 70 160
e 70 190
e 70 215
e 70 271
e 70 311
e 70 369
e 71 76
e 71 77
e 71 88
e 71 90
e 71 182
e 71 312
e 71 376
e 71 411
e 72 80
e 72 83
e 72 99
e 72 106
e 72 127
e 72 140
e 72 160
e 72 190
e 72 215
e 72 271
e 72 311
e 73 86
e 73 100
e 73 103
e 73 119
e 73 131
e 73 158
e 73 159
e 73 201
e 73 246
e 74 94
e 74 110
e 74 125
e 74 157
e 74 169
e 74 189
e 74 213
e 74 221
e 74 251
e 74 252
e 74 289
e 74 292
e 74 296
e 74 298
e 74 333
e 75 84
e 75 138
e 75 195
e 75 266
e 75 323
e 75 331
e 76 77
e 76 88
e 76 90
e 76 145
e 76 157
e 76 170
e 76 182
e 76 213
e 76 312
e 76 328
e 76 411
e 77 88
e 77 90
e 77 145
e 77 157
e 77 170
e 77 182
e 77 213
e 77 312
e 77 328
e 77 411
e 78 97
e 78 107
e 78 137
e 78 142
e 78 149
e 78 153
e 78 165
e 78 172
e 78 174
e 78 177
e 78 184
e 78 196
e 78 200
e 78 209
e 78 226
e 78 228
e 78 270
e 78 282
e 78 327
e 79 85
e 79 88
e 79 92
e 79 101
e 79 102
e 79 104
e 79 116
e 79 130
e 79 133
e 79 145
e 79 150
e 79 176
e 79 191
e 80 87
e 80 99
e 80 127
e 80 140
e 80 160
e 80 190
e 80 214
e 80 237
e 80 258
e 80 329
e 81 113
e 81 128
e 81 147
e 81 208
e 81 256
e 81 265
e 81 303
e 81 318
e 82 91
e 82 100
e 82 111
e 82 119
e 82 171
e 82 216
e 82 218
e 82 225
e 82 230
e 82 273
e 82 371
e 83 84
e 83 85
e 83 92
e 83 102
e 83 106
e 83 130
e 83 133
e 83 135
e 83 140
e 83 160
e 83 191
e 83 203
e 84 85
e 84 92
e 84 102
e 84 116
e 84 135
e 84 138
e 84 166
e 84 185
e 84 195
e 84 203
e 84 259
e 84 266
e 84 323
e 84 325
e 84 331
e 85 92
e 85 101
e 85 102
e 85 106
e 85 116
e 85 130
e 85 133
e 85 135
e 85 160
e 85 166
e 85 185
e 85 191
e 85 203
e 85 259
e 85 325
e 86 100
e 86 103
e 86 115
e 86 131
e 86 158
e 86 159
e 86 173
e 86 201
e 86 347
e 87 140
e 87 160
e 87 199
e 87 214
e 87 237
e 87 264
e 87 283
e 87 329
e 87 470
e 88 90
e 88 145
e 88 150
e 88 157
e 89 95
e 89 129
e 89 144
e 89 176
e 89 180
e 89 267
e 89 269
e 89 316
e 89 320
e 89 322
e 89 376
e 90 145
e 90 157
e 90 182
e 90 213
e 90 312
e 90 411
e 91 100
e 91 111
e 91 119
e 91 171
e 91 216
e 91 225
e 91 230
e 91 273
e 91 306
e 91 371
e 92 101
e 92 102
e 92 104
e 92 116
e 92 130
e 92 133
e 92 135
e 92 150
e 92 166
e 92 185
e 92 191
e 92 203
e 92 259
e 92 325
e 93 110
e 93 120
e 93 121
e 93 122
e 93 124
e 93 162
e 93 163
e 93 175
e 93 197
e 93 205
e 93 206
e 93 297
e 93 388
e 94 110
e 94 125
e 94 157
e 94 169
e 94 170
e 94 189
e 94 213
e 94 221
e 94 222
e 94 251
e 94 252
e 94 289
e 94 296
e 94 298
e 95 104
e 95 129
e 95 144
e 95 176
e 95 269
e 95 315
e 95 322
e 96 158
e 96 188
e 96 201
e 96 218
e 96 290
e 96 299
e 96 344
e 96 347
e 96 358
e 96 384
e 96 435
e 96 462
e 97 107
e 97 137
e 97 142
e 97 153
e 97 165
e 97 172
e 97 174
e 97 177
e 97 184
e 97 200
e 97 209
e 97 226
e 97 228
e 97 270
e 97 293
e 97 327
e 97 343
e 98 105
e 98 112
e 98 123
e 98 126
e 98 156
e 98 181
e 98 186
e 98 187
e 98 198
e 98 204
e 98 224
e 98 227
e 98 254
e 99 127
e 99 190
e 99 215
e 99 237
e 99 258
e 99 271
e 99 294
e 99 329
e 99 357
e 99 367
e 99 397
e 100 103
e 100 111
e 100 119
e 100 131
e 100 158
e 100 201
e 101 102
e 101 104
e 101 116
e 101 130
e 101 133
e 101 135
e 101 150
e 101 176
e 101 191
e 101 259
e 102 106
e 102 116
e 102 130
e 102 133
e 102 135
e 102 166
e 102 185
e 102 191
e 102 203
e 102 259
e 102 325
e 103 119
e 103 131
e 103 158
e 103 201
e 103 347
e 104 116
e 104 130
e 104 150
e 104 176
e 104 191
e 105 112
e 105 123
e 105 126
e 105 156
e 105 181
e 105 186
e 105 187
e 105 198
e 105 204
e 105 224
e 105 227
e 106 130
e 106 133
e 106 140
e 106 160
e 106 191
e 106 215
e 106 271
e 106 311
e 106 369
e 107 137
e 107 142
e 107 149
e 107 153
e 107 165
e 107 172
e 107 174
e 107 177
e 107 184
e 107 196
e 107 200
e 107 209
e 107 226
e 107 228
e 107 282
e 107 327
e 108 136
e 108 193
e 108 223
e 108 234
e 108 243
e 108 249
e 108 255
e 108 260
e 108 274
e 108 284
e 108 300
e 108 302
e 108 307
e 108 309
e 108 341
e 108 342
e 108 395
e 109 117
e 109 132
e 109 141
e 109 164
e 109 168
e 109 179
e 109 192
e 109 202
e 109 229
e 109 235
e 109 275
e 109 276
e 110 120
e 110 121
e 110 125
e 110 169
e 110 189
e 110 206
e 110 221
e 110 296
e 110 389
e 110 417
e 110 426
e 111 119
e 111 152
e 111 171
e 111 204
e 111 216
e 111 225
e 111 230
e 111 273
e 111 371
e 112 123
e 112 126
e 112 156
e 112 178
e 112 181
e 112 186
e 112 187
e 112 198
e 112 204
e 112 211
e 112 212
e 112 281
e 112 306
e 112 361
e 113 128
e 113 147
e 113 208
e 113 256
e 113 265
e 113 279
e 113 303
e 113 314
e 113 318
e 113 346
e 113 381
e 114 155
e 114 178
e 114 212
e 114 245
e 114 261
e 114 286
e 114 295
e 114 321
e 114 352
e 114 354
e 114 364
e 114 375
e 114 398
e 114 399
e 114 401
e 114 406
e 114 410
e 114 447
e 115 118
e 115 139
e 115 159
e 115 173
e 115 232
e 115 236
e 115 242
e 115 420
e 115 424
e 116 130
e 116 135
e 116 166
e 116 185
e 116 191
e 116 203
e 116 259
e 116 325
e 116 466
e 116 478
e 117 132
e 117 141
e 117 156
e 117 164
e 117 168
e 117 179
e 117 192
e 117 202
e 117 229
e 117 235
e 117 276
e 117 326
e 118 139
e 118 159
e 118 173
e 118 193
e 118 232
e 118 236
e 118 242
e 119 131
e 119 158
e 119 201
e 119 225
e 120 121
e 120 122
e 120 124
e 120 162
e 120 163
e 120 197
e 120 205
e 120 206
e 120 388
e 120 389
e 121 122
e 121 124
e 121 162
e 121 163
e 121 197
e 121 205
e 121 206
e 121 388
e 121 389
e 122 124
e 122 162
e 122 163
e 122 175
e 122 197
e 122 205
e 122 206
e 122 297
e 122 388
e 123 126
e 123 156
e 123 178
e 123 181
e 123 186
e 123 187
e 123 211
e 123 231
e 123 281
e 123 310
e 123 338
e 123 402
e 124 162
e 124 163
e 124 175
e 124 197
e 124 205
e 124 206
e 124 219
e 124 297
e 124 385
e 125 169
e 125 170
e 125 189
e 125 213
e 125 221
e 125 222
e 125 296
e 125 298
e 125 417
e 125 426
e 126 156
e 126 178
e 126 181
e 126 186
e 126 187
e 126 211
e 126 212
e 126 231
e 126 245
e 126 281
e 126 310
e 127 140
e 127 160
e 127 190
e 127 215
e 127 237
e 127 258
e 127 329
e 127 357
e 128 147
e 128 208
e 128 264
e 128 265
e 128 318
e 128 340
e 128 373
e 128 475
e 129 144
e 129 176
e 129 180
e 129 269
e 129 315
e 129 320
e 129 322
e 129 363
e 130 133
e 130 135
e 130 145
e 130 150
e 130 191
e 130 311
e 131 158
e 131 201
e 131 347
e 132 141
e 132 164
e 132 168
e 132 179
e 132 192
e 132 202
e 132 229
e 132 235
e 132 276
e 132 326
e 133 145
e 133 150
e 133 191
e 133 271
e 133 311
e 133 369
e 134 154
e 134 210
e 134 241
e 134 248
e 134 250
e 134 349
e 134 350
e 134 356
e 134 359
e 134 362
e 134 365
e 134 377
e 134 378
e 134 380
e 134 409
e 134 423
e 134 432
e 135 166
e 135 185
e 135 191
e 135 203
e 135 259
e 135 266
e 135 325
e 136 142
e 136 149
e 136 151
e 136 153
e 136 196
e 136 223
e 136 226
e 136 243
e 136 249
e 136 255
e 136 260
e 136 288
e 136 309
e 136 330
e 136 341
e 136 372
e 137 165
e 137 174
e 137 177
e 137 200
e 137 228
e 137 270
e 137 287
e 137 293
e 137 305
e 137 327
e 137 343
e 137 413
e 137 431
e 137 441
e 138 166
e 138 185
e 138 195
e 138 203
e 138 266
e 138 323
e 138 331
e 139 148
e 139 159
e 139 193
e 139 234
e 139 302
e 140 160
e 141 179
e 141 192
e 141 202
e 141 224
e 141 229
e 141 235
e 141 238
e 141 276
e 141 326
e 141 464
e 142 149
e 142 151
e 142 153
e 142 172
e 142 177
e 142 184
e 142 196
e 142 209
e 142 223
e 142 226
e 142 228
e 142 249
e 142 390
e 143 194
e 143 217
e 143 239
e 143 247
e 143 263
e 143 308
e 143 313
e 143 316
e 143 332
e 143 334
e 143 337
e 143 339
e 143 353
e 143 419
e 143 425
e 143 443
e 143 450
e 144 176
e 144 180
e 144 269
e 144 315
e 144 320
e 144 322
e 145 150
e 145 157
e 145 252
e 145 298
e 145 333
e 146 148
e 146 152
e 146 161
e 146 167
e 146 183
e 146 227
e 146 233
e 146 246
e 146 253
e 146 254
e 146 257
e 146 268
e 146 272
e 146 274
e 146 351
e 147 208
e 147 265
e 147 318
e 148 161
e 148 167
e 148 183
e 148 233
e 148 246
e 148 257
e 148 272
e 148 274
e 148 302
e 148 307
e 148 351
e 149 151
e 149 153
e 149 196
e 149 209
e 149 223
e 149 226
e 149 249
e 149 260
e 149 282
e 149 288
e 149 309
e 149 341
e 149 372
e 150 191
e 151 153
e 151 196
e 151 223
e 151 226
e 151 249
e 151 255
e 151 260
e 151 282
e 151 288
e 151 309
e 151 330
e 151 341
e 151 368
e 151 372
e 152 161
e 152 167
e 152 183
e 152 198
e 152 204
e 152 224
e 152 227
e 152 230
e 152 238
e 152 246
e 152 253
e 152 254
e 152 268
e 153 196
e 153 200
e 153 223
e 153 226
e 153 249
e 153 260
e 153 282
e 153 288
e 153 368
e 153 372
e 154 210
e 154 241
e 154 248
e 154 250
e 154 345
e 154 349
e 154 350
e 154 356
e 154 359
e 154 362
e 154 365
e 154 377
e 154 378
e 154 380
e 154 409
e 154 423
e 155 178
e 155 212
e 155 245
e 155 261
e 155 286
e 155 295
e 155 321
e 155 352
e 155 354
e 155 364
e 155 375
e 155 398
e 155 399
e 155 401
e 155 406
e 155 410
e 156 181
e 156 186
e 156 187
e 156 211
e 157 170
e 157 189
e 157 213
e 157 222
e 157 252
e 157 298
e 157 333
e 157 411
e 158 201
e 158 347
e 158 462
e 159 173
e 159 236
e 161 167
e 161 183
e 161 227
e 161 233
e 161 246
e 161 253
e 161 254
e 161 257
e 161 268
e 162 163
e 162 175
e 162 197
e 162 205
e 162 206
e 162 297
e 163 175
e 163 197
e 163 205
e 163 206
e 163 297
e 164 168
e 164 179
e 164 192
e 164 202
e 164 229
e 164 275
e 164 276
e 164 323
e 164 331
e 164 430
e 165 172
e 165 174
e 165 177
e 165 184
e 165 200
e 165 209
e 165 228
e 165 293
e 165 327
e 165 413
e 165 440
e 165 485
e 166 185
e 166 203
e 166 259
e 166 266
e 166 323
e 166 325
e 166 466
e 166 478
e 167 183
e 167 233
e 167 246
e 167 257
e 167 274
e 168 179
e 168 192
e 168 202
e 168 231
e 168 275
e 168 430
e 169 189
e 169 213
e 169 221
e 169 222
e 169 251
e 169 289
e 169 296
e 169 298
e 170 189
e 170 213
e 170 221
e 170 222
e 170 296
e 170 328
e 170 404
e 170 411
e 170 417
e 170 421
e 170 460
e 171 188
e 171 216
e 171 218
e 171 225
e 171 273
e 171 336
e 172 174
e 172 177
e 172 184
e 172 196
e 172 200
e 172 209
e 172 228
e 172 390
e 172 440
e 172 446
e 172 471
e 173 232
e 173 236
e 173 242
e 173 407
e 173 414
e 173 420
e 173 424
e 173 489
e 174 177
e 174 184
e 174 200
e 174 228
e 174 293
e 174 327
e 174 343
e 174 413
e 174 431
e 174 440
e 175 197
e 175 219
e 175 220
e 175 244
e 175 251
e 175 297
e 175 385
e 175 397
e 176 269
e 176 315
e 176 322
e 177 184
e 177 200
e 177 209
e 177 228
e 177 270
e 177 293
e 177 327
e 177 343
e 178 187
e 178 211
e 178 212
e 178 245
e 178 261
e 178 281
e 178 306
e 178 321
e 178 361
e 178 375
e 178 398
e 179 192
e 179 202
e 179 229
e 179 235
e 179 276
e 179 326
e 180 269
e 180 315
e 180 316
e 180 320
e 180 322
e 180 332
e 180 348
e 180 353
e 180 363
e 180 427
e 180 434
e 180 439
e 180 443
e 181 186
e 181 187
e 181 211
e 181 231
e 182 312
e 182 376
e 182 391
e 182 408
e 183 233
e 183 246
e 183 257
e 183 272
e 183 274
e 184 196
e 184 200
e 184 209
e 184 228
e 184 293
e 184 390
e 184 440
e 184 446
e 185 203
e 185 259
e 185 266
e 185 323
e 185 325
e 185 331
e 185 466
e 185 478
e 186 187
e 186 198
e 186 204
e 186 211
e 187 211
e 187 212
e 187 281
e 187 310
e 188 218
e 188 290
e 188 299
e 188 358
e 188 384
e 188 435
e 188 436
e 188 449
e 188 455
e 189 213
e 189 221
e 189 222
e 189 296
e 189 298
e 189 417
e 189 426
e 190 215
e 190 237
e 190 258
e 190 294
e 190 329
e 190 357
e 190 367
e 191 259
e 192 202
e 192 229
e 192 235
e 192 276
e 192 326
e 193 234
e 193 243
e 193 274
e 193 284
e 193 300
e 193 302
e 193 342
e 194 217
e 194 239
e 194 240
e 194 247
e 194 262
e 194 285
e 194 291
e 194 308
e 194 313
e 194 317
e 194 334
e 194 335
e 194 337
e 194 339
e 194 355
e 195 266
e 195 279
e 195 323
e 195 331
e 195 346
e 195 430
e 196 209
e 196 223
e 196 226
e 196 249
e 196 260
e 196 390
e 196 446
e 197 205
e 197 206
e 197 297
e 198 204
e 198 224
e 198 227
e 198 230
e 198 238
e 198 253
e 198 254
e 198 268
e 198 371
e 199 214
e 199 264
e 199 283
e 199 373
e 199 461
e 200 226
e 200 228
e 200 270
e 200 282
e 200 327
e 200 343
e 201 347
e 202 229
e 202 235
e 202 276
e 202 326
e 203 259
e 203 266
e 203 323
e 203 325
e 204 224
e 204 225
e 204 227
e 204 230
e 204 253
e 204 254
e 204 268
e 204 371
e 205 206
e 205 297
e 205 388
e 206 388
e 206 389
e 207 277
e 207 278
e 207 280
e 207 301
e 207 319
e 207 344
e 207 360
e 207 366
e 207 386
e 207 387
e 207 407
e 207 414
e 207 415
e 207 416
e 207 444
e 208 256
e 208 265
e 208 303
e 208 314
e 208 318
e 208 340
e 208 346
e 209 228
e 209 390
e 209 446
e 209 471
e 209 495
e 210 241
e 210 248
e 210 349
e 210 350
e 210 356
e 210 359
e 210 362
e 210 377
e 210 378
e 210 380
e 210 409
e 210 423
e 210 433
e 211 231
e 211 281
e 211 310
e 211 338
e 211 402
e 212 245
e 212 261
e 212 281
e 212 295
e 212 306
e 212 321
e 212 361
e 212 375
e 212 398
e 213 222
e 213 252
e 213 298
e 213 328
e 213 411
e 214 237
e 214 264
e 214 283
e 214 329
e 214 461
e 214 470
e 215 258
e 215 271
e 215 292
e 215 294
e 215 311
e 215 369
e 216 225
e 216 230
e 216 261
e 216 273
e 216 306
e 216 361
e 216 371
e 217 239
e 217 240
e 217 247
e 217 262
e 217 285
e 217 287
e 217 305
e 217 308
e 217 313
e 217 334
e 217 335
e 217 337
e 217 339
e 218 290
e 218 299
e 218 336
e 218 384
e 218 436
e 218 449
e 219 220
e 219 244
e 219 251
e 219 289
e 219 292
e 219 294
e 219 297
e 219 367
e 219 385
e 219 397
e 219 429
e 220 244
e 220 251
e 220 252
e 220 289
e 220 292
e 220 294
e 220 333
e 220 367
e 220 385
e 220 397
e 220 429
e 221 222
e 221 296
e 221 389
e 221 417
e 221 426
e 222 296
e 222 328
e 222 404
e 222 411
e 222 417
e 222 421
e 222 426
e 223 226
e 223 243
e 223 249
e 223 255
e 223 260
e 223 309
e 223 330
e 223 341
e 224 227
e 224 238
e 224 253
e 224 254
e 224 268
e 224 383
e 225 230
e 225 273
e 225 306
e 225 371
e 226 282
e 226 288
e 226 368
e 226 372
e 227 230
e 227 238
e 227 253
e 227 254
e 227 268
e 228 293
e 228 390
e 228 440
e 229 235
e 229 276
e 229 326
e 229 466
e 229 478
e 230 253
e 230 254
e 230 268
e 230 273
e 230 306
e 230 371
e 231 275
e 231 310
e 231 324
e 231 338
e 231 402
e 232 236
e 232 242
e 232 420
e 232 424
e 232 473
e 232 491
e 233 238
e 233 253
e 233 257
e 233 272
e 233 274
e 233 351
e 233 370
e 233 383
e 234 243
e 234 284
e 234 300
e 234 302
e 234 304
e 234 341
e 234 342
e 234 382
e 234 395
e 235 276
e 235 326
e 235 486
e 236 242
e 236 420
e 236 424
e 236 473
e 237 258
e 237 283
e 237 329
e 237 357
e 237 470
e 238 253
e 238 254
e 238 268
e 238 351
e 238 370
e 238 383
e 239 240
e 239 247
e 239 262
e 239 285
e 239 287
e 239 305
e 239 308
e 239 313
e 239 334
e 239 337
e 239 339
e 239 419
e 240 262
e 240 285
e 240 287
e 240 305
e 240 334
e 240 335
e 240 339
e 240 394
e 240 400
e 240 405
e 240 453
e 241 248
e 241 349
e 241 350
e 241 356
e 241 359
e 241 378
e 241 380
e 241 409
e 241 423
e 241 433
e 241 456
e 242 304
e 242 420
e 242 424
e 242 473
e 242 491
e 243 249
e 243 255
e 243 260
e 243 274
e 243 284
e 243 302
e 243 307
e 243 309
e 243 341
e 244 251
e 244 289
e 244 292
e 244 294
e 244 297
e 244 367
e 244 385
e 244 397
e 244 429
e 245 261
e 245 281
e 245 286
e 245 295
e 245 306
e 245 321
e 245 361
e 245 375
e 245 398
e 246 268
e 247 263
e 247 291
e 247 308
e 247 313
e 247 317
e 247 335
e 247 337
e 247 355
e 247 428
e 247 442
e 248 345
e 248 349
e 248 350
e 248 356
e 248 378
e 248 380
e 248 409
e 248 423
e 248 433
e 248 456
e 249 255
e 249 260
e 249 309
e 249 341
e 249 395
e 250 350
e 250 352
e 250 356
e 250 362
e 250 365
e 250 375
e 250 377
e 250 380
e 250 398
e 250 399
e 250 401
e 250 432
e 251 252
e 251 289
e 251 292
e 251 298
e 251 333
e 252 271
e 252 289
e 252 292
e 252 298
e 252 311
e 252 333
e 252 369
e 253 254
e 253 268
e 254 268
e 255 260
e 255 274
e 255 288
e 255 307
e 255 309
e 255 330
e 255 341
e 255 392
e 256 265
e 256 279
e 256 303
e 256 314
e 256 324
e 256 346
e 256 374
e 256 381
e 256 430
e 257 272
e 257 274
e 257 307
e 257 351
e 257 370
e 257 383
e 258 294
e 258 329
e 258 357
e 258 367
e 258 397
e 258 429
e 259 325
e 259 466
e 259 478
e 260 307
e 260 309
e 260 330
e 260 341
e 261 286
e 261 295
e 261 306
e 261 321
e 261 354
e 261 361
e 261 364
e 261 406
e 262 285
e 262 287
e 262 305
e 262 335
e 262 355
e 262 394
e 262 400
e 262 405
e 262 453
e 262 458
e 263 267
e 263 291
e 263 308
e 263 313
e 263 316
e 263 320
e 263 332
e 263 337
e 263 353
e 263 391
e 263 408
e 263 443
e 264 283
e 264 318
e 264 373
e 264 461
e 264 475
e 265 303
e 265 314
e 265 318
e 265 340
e 265 396
e 266 323
e 266 331
e 267 291
e 267 313
e 267 316
e 267 320
e 267 332
e 267 337
e 267 376
e 267 391
e 267 408
e 267 443
e 269 315
e 269 322
e 269 348
e 269 363
e 269 434
e 269 439
e 270 282
e 270 287
e 270 305
e 270 327
e 270 334
e 270 339
e 270 343
e 270 419
e 270 425
e 271 292
e 271 311
e 271 333
e 271 369
e 272 274
e 272 307
e 272 351
e 272 370
e 272 383
e 272 392
e 272 437
e 273 306
e 273 361
e 273 371
e 274 302
e 274 307
e 275 279
e 275 324
e 275 338
e 275 402
e 275 430
e 276 326
e 276 486
e 277 278
e 277 280
e 277 301
e 277 319
e 277 344
e 277 360
e 277 366
e 277 386
e 277 387
e 277 415
e 277 416
e 277 444
e 278 280
e 278 301
e 278 319
e 278 360
e 278 366
e 278 386
e 278 387
e 278 412
e 278 415
e 278 416
e 278 444
e 279 314
e 279 324
e 279 331
e 279 338
e 279 346
e 279 381
e 279 430
e 280 301
e 280 319
e 280 344
e 280 347
e 280 358
e 280 366
e 280 407
e 280 412
e 280 414
e 280 462
e 281 310
e 281 375
e 281 398
e 281 401
e 281 402
e 282 288
e 282 368
e 282 372
e 282 419
e 282 425
e 283 373
e 283 461
e 283 470
e 283 475
e 284 300
e 284 302
e 284 304
e 284 342
e 284 382
e 284 395
e 284 459
e 285 317
e 285 335
e 285 355
e 285 394
e 285 400
e 285 405
e 285 453
e 285 458
e 286 295
e 286 321
e 286 336
e 286 354
e 286 361
e 286 364
e 286 406
e 286 410
e 286 447
e 287 305
e 287 327
e 287 334
e 287 339
e 287 343
e 287 394
e 287 400
e 288 309
e 288 330
e 288 368
e 288 372
e 288 392
e 288 403
e 289 292
e 289 298
e 289 333
e 290 299
e 290 336
e 290 384
e 290 435
e 290 436
e 290 449
e 290 455
e 291 308
e 291 313
e 291 316
e 291 317
e 291 332
e 291 337
e 291 408
e 291 442
e 291 467
e 292 294
e 292 298
e 292 333
e 292 369
e 293 413
e 293 431
e 293 440
e 293 441
e 293 469
e 293 485
e 294 357
e 294 367
e 294 385
e 294 397
e 294 429
e 295 321
e 295 354
e 295 364
e 295 399
e 295 406
e 295 410
e 295 447
e 296 417
e 296 426
e 297 385
e 298 333
e 299 336
e 299 384
e 299 435
e 299 436
e 299 449
e 299 455
e 300 304
e 300 342
e 300 382
e 300 395
e 300 451
e 300 459
e 300 477
e 301 319
e 301 360
e 301 366
e 301 386
e 301 387
e 301 412
e 301 415
e 301 416
e 301 444
e 302 307
e 303 314
e 303 340
e 303 374
e 303 381
e 303 396
e 303 422
e 303 445
e 303 448
e 304 342
e 304 382
e 304 451
e 304 459
e 304 473
e 304 477
e 304 491
e 305 327
e 305 334
e 305 339
e 305 343
e 305 394
e 305 400
e 306 321
e 306 361
e 306 371
e 307 309
e 307 330
e 307 341
e 307 392
e 308 313
e 308 317
e 308 335
e 308 337
e 308 339
e 308 355
e 309 330
e 309 341
e 310 324
e 310 338
e 310 345
e 310 398
e 310 402
e 311 333
e 311 369
e 312 376
e 312 391
e 312 408
e 313 316
e 313 332
e 313 337
e 313 353
e 314 324
e 314 338
e 314 346
e 314 374
e 314 381
e 314 445
e 315 322
e 315 348
e 315 363
e 315 434
e 315 439
e 315 486
e 316 320
e 316 332
e 316 337
e 316 353
e 316 443
e 317 335
e 317 355
e 317 405
e 317 428
e 317 442
e 317 458
e 317 467
e 317 492
e 318 340
e 318 373
e 318 474
e 318 475
e 319 360
e 319 366
e 319 386
e 319 387
e 319 407
e 319 412
e 319 414
e 319 489
e 320 332
e 320 353
e 320 363
e 320 443
e 321 354
e 321 361
e 321 364
e 321 406
e 322 348
e 322 363
e 322 434
e 322 439
e 323 331
e 323 430
e 324 338
e 324 345
e 324 346
e 324 374
e 324 381
e 324 402
e 325 466
e 325 478
e 326 464
e 326 486
e 327 343
e 328 404
e 328 411
e 328 421
e 328 454
e 328 460
e 328 476
e 328 479
e 329 357
e 329 470
e 330 368
e 330 372
e 330 392
e 330 403
e 331 430
e 332 337
e 332 353
e 332 443
e 332 450
e 333 369
e 334 339
e 334 343
e 334 419
e 334 425
e 335 355
e 335 405
e 335 428
e 335 458
e 336 354
e 336 364
e 336 436
e 336 447
e 336 449
e 338 345
e 338 402
e 339 419
e 339 425
e 340 396
e 340 422
e 340 438
e 340 448
e 340 452
e 340 474
e 340 480
e 342 382
e 342 395
e 342 451
e 342 459
e 343 394
e 343 400
e 344 347
e 344 358
e 344 384
e 344 407
e 344 414
e 344 435
e 344 462
e 344 494
e 345 349
e 345 350
e 345 356
e 345 374
e 345 380
e 345 381
e 345 402
e 346 374
e 346 381
e 346 430
e 347 358
e 347 407
e 347 414
e 347 462
e 348 363
e 348 403
e 348 418
e 348 427
e 348 434
e 348 439
e 348 464
e 348 486
e 349 350
e 349 356
e 349 374
e 349 380
e 349 381
e 349 445
e 350 356
e 350 374
e 350 380
e 351 370
e 351 383
e 351 437
e 352 362
e 352 365
e 352 375
e 352 377
e 352 399
e 352 401
e 352 410
e 352 432
e 353 419
e 353 425
e 353 443
e 353 450
e 354 364
e 354 406
e 354 410
e 354 447
e 355 405
e 355 428
e 355 442
e 355 458
e 356 378
e 356 380
e 357 367
e 357 429
e 357 470
e 358 384
e 358 435
e 358 455
e 358 462
e 358 494
e 359 362
e 359 365
e 359 377
e 359 378
e 359 409
e 359 423
e 359 432
e 360 366
e 360 386
e 360 387
e 360 412
e 360 415
e 360 416
e 361 371
e 362 365
e 362 377
e 362 409
e 362 423
e 362 432
e 363 418
e 363 427
e 363 434
e 363 439
e 364 406
e 364 410
e 364 447
e 365 375
e 365 377
e 365 399
e 365 401
e 365 432
e 366 407
e 366 412
e 366 414
e 366 489
e 367 385
e 367 397
e 367 429
e 368 372
e 368 392
e 368 403
e 368 418
e 368 450
e 370 383
e 370 403
e 370 437
e 370 464
e 372 425
e 372 450
e 373 461
e 373 475
e 374 380
e 374 381
e 374 445
e 375 398
e 375 401
e 376 391
e 376 408
e 377 399
e 377 409
e 377 432
e 378 409
e 378 423
e 378 433
e 378 456
e 379 393
e 379 413
e 379 431
e 379 441
e 379 457
e 379 469
e 379 472
e 379 482
e 379 483
e 379 487
e 379 488
e 381 445
e 382 395
e 382 451
e 382 459
e 382 477
e 383 437
e 383 464
e 384 435
e 384 436
e 384 455
e 384 494
e 385 397
e 385 429
e 386 387
e 386 415
e 386 416
e 386 444
e 387 415
e 387 416
e 387 444
e 388 389
e 389 426
e 390 446
e 390 471
e 390 484
e 390 495
e 391 408
e 391 463
e 392 403
e 392 418
e 392 427
e 392 437
e 393 431
e 393 441
e 393 457
e 393 469
e 393 472
e 393 482
e 393 483
e 393 487
e 393 488
e 394 400
e 394 405
e 394 453
e 394 472
e 395 459
e 395 477
e 395 484
e 396 422
e 396 433
e 396 438
e 396 445
e 396 448
e 396 452
e 396 456
e 397 429
e 398 401
e 399 401
e 399 410
e 399 432
e 400 405
e 400 453
e 400 472
e 401 432
e 403 418
e 403 427
e 403 437
e 403 464
e 404 411
e 404 421
e 404 454
e 404 460
e 404 468
e 404 476
e 404 479
e 405 453
e 405 458
e 406 410
e 406 447
e 407 412
e 407 414
e 407 462
e 408 463
e 409 423
e 410 447
e 412 414
e 412 424
e 412 489
e 413 431
e 413 440
e 413 441
e 413 469
e 413 485
e 414 462
e 415 416
e 415 444
e 416 444
e 417 421
e 417 426
e 418 427
e 418 434
e 418 437
e 418 439
e 419 425
e 419 450
e 420 424
e 420 473
e 420 489
e 420 491
e 421 454
e 421 460
e 421 476
e 421 479
e 422 438
e 422 448
e 422 452
e 422 456
e 422 474
e 422 480
e 424 489
e 425 450
e 427 434
e 427 437
e 427 439
e 428 442
e 428 458
e 428 467
e 428 481
e 428 492
e 431 441
e 431 469
e 431 485
e 433 445
e 433 456
e 433 465
e 433 493
e 434 439
e 435 455
e 435 494
e 436 449
e 436 455
e 437 464
e 438 448
e 438 452
e 438 465
e 438 474
e 438 480
e 438 490
e 440 471
e 440 485
e 441 457
e 441 469
e 441 472
e 442 463
e 442 467
e 442 481
e 442 492
e 443 450
e 445 456
e 446 471
e 446 484
e 446 495
e 448 452
e 448 474
e 448 480
e 451 459
e 451 473
e 451 477
e 451 491
e 452 474
e 452 480
e 452 490
e 453 458
e 453 472
e 454 460
e 454 463
e 454 468
e 454 476
e 454 479
e 455 494
e 456 465
e 457 472
e 457 482
e 457 483
e 457 487
e 457 488
e 459 477
e 460 468
e 460 476
e 460 479
e 461 475
e 463 467
e 463 468
e 463 481
e 463 492
e 464 486
e 465 490
e 465 493
e 465 496
e 465 497
e 466 478
e 467 481
e 467 492
e 468 476
e 468 479
e 468 481
e 469 485
e 471 484
e 471 495
e 473 491
e 474 480
e 476 479
e 477 484
e 481 492
e 482 483
e 482 487
e 482 488
e 483 487
e 483 488
e 484 495
e 487 488
e 490 493
e 490 496
e 490 497
e 493 496
e 493 497
e 496 497
